c File: flat1000_76_0.col
c
c SOURCE: Joseph Culberson (joe@cs.ualberta.ca)
c DESCRIPTION: Quasi-random coloring problem
c              generated with flatness = 0
c                             probability = 0.500
c                             known coloring = 76
c                             random seed = 380013584
c              Creation Date:  Wed Oct 12 10:34:45 1994
c Maximum degree = 532 Minimum degree = 455
c COLOR VERIFICATION: Using the permuted order
c under simple greedy yields the specified
c coloring number
c Color = 76 specified partitions = 76
p edge 1000 246708
e 3 1
e 5 2
e 5 4
e 6 1
e 6 2
e 6 5
e 7 1
e 7 2
e 7 5
e 7 6
e 8 3
e 8 6
e 9 2
e 9 4
e 9 6
e 9 8
e 10 2
e 10 3
e 10 4
e 10 6
e 10 7
e 10 9
e 11 1
e 11 2
e 11 4
e 11 5
e 11 6
e 11 8
e 12 2
e 12 4
e 12 5
e 12 7
e 12 9
e 13 2
e 13 6
e 13 7
e 13 9
e 13 11
e 13 12
e 14 1
e 14 4
e 14 5
e 14 6
e 14 8
e 14 10
e 14 12
e 15 4
e 15 9
e 15 11
e 16 1
e 16 2
e 16 4
e 16 5
e 16 7
e 16 10
e 16 12
e 16 13
e 16 15
e 17 1
e 17 2
e 17 3
e 17 7
e 17 9
e 17 10
e 17 11
e 17 14
e 17 15
e 17 16
e 18 4
e 18 6
e 18 10
e 18 12
e 18 15
e 18 16
e 19 7
e 19 9
e 19 17
e 19 18
e 20 2
e 20 4
e 20 5
e 20 7
e 20 9
e 20 11
e 20 12
e 20 13
e 20 14
e 20 16
e 20 19
e 21 1
e 21 2
e 21 6
e 21 7
e 21 9
e 21 11
e 21 14
e 21 15
e 21 19
e 21 20
e 22 1
e 22 3
e 22 6
e 22 7
e 22 12
e 22 13
e 22 14
e 22 15
e 22 16
e 22 18
e 22 21
e 23 1
e 23 4
e 23 11
e 23 12
e 23 15
e 23 17
e 23 19
e 23 20
e 24 5
e 24 6
e 24 7
e 24 8
e 24 9
e 24 11
e 24 12
e 24 17
e 25 2
e 25 3
e 25 4
e 25 9
e 25 12
e 25 14
e 25 16
e 25 17
e 25 18
e 25 19
e 25 21
e 25 23
e 26 3
e 26 4
e 26 8
e 26 9
e 26 12
e 26 13
e 26 15
e 26 16
e 26 17
e 26 18
e 26 21
e 26 22
e 26 24
e 27 2
e 27 4
e 27 5
e 27 6
e 27 8
e 27 9
e 27 10
e 27 11
e 27 13
e 27 14
e 27 18
e 27 22
e 27 23
e 27 24
e 27 25
e 28 1
e 28 3
e 28 5
e 28 7
e 28 9
e 28 11
e 28 12
e 28 13
e 28 16
e 28 20
e 28 21
e 28 24
e 28 26
e 28 27
e 29 1
e 29 4
e 29 6
e 29 9
e 29 10
e 29 11
e 29 13
e 29 22
e 29 24
e 29 25
e 29 27
e 30 6
e 30 8
e 30 9
e 30 11
e 30 14
e 30 15
e 30 16
e 30 17
e 30 18
e 30 19
e 30 22
e 30 23
e 30 25
e 30 27
e 31 5
e 31 8
e 31 10
e 31 12
e 31 13
e 31 16
e 31 17
e 31 18
e 31 20
e 31 21
e 31 23
e 32 3
e 32 9
e 32 13
e 32 15
e 32 18
e 32 19
e 32 20
e 32 21
e 32 22
e 32 24
e 32 25
e 32 26
e 32 27
e 32 28
e 32 31
e 33 1
e 33 4
e 33 5
e 33 6
e 33 7
e 33 10
e 33 11
e 33 13
e 33 19
e 33 20
e 33 21
e 33 22
e 33 25
e 33 26
e 33 28
e 33 30
e 33 31
e 34 2
e 34 3
e 34 5
e 34 10
e 34 17
e 34 18
e 34 20
e 34 24
e 34 29
e 34 30
e 34 32
e 35 2
e 35 5
e 35 6
e 35 8
e 35 11
e 35 12
e 35 13
e 35 20
e 35 28
e 35 29
e 35 32
e 35 33
e 35 34
e 36 2
e 36 4
e 36 9
e 36 10
e 36 12
e 36 14
e 36 15
e 36 16
e 36 18
e 36 21
e 36 22
e 36 23
e 36 24
e 36 25
e 36 27
e 36 28
e 36 32
e 36 34
e 36 35
e 37 1
e 37 2
e 37 3
e 37 4
e 37 8
e 37 11
e 37 14
e 37 18
e 37 20
e 37 21
e 37 22
e 37 25
e 37 27
e 37 30
e 37 34
e 38 6
e 38 8
e 38 12
e 38 14
e 38 16
e 38 17
e 38 20
e 38 21
e 38 23
